133173
60,91,79,43,15,4,103,75,35,100,51,63,32,53,84,7,18,49,39,36,37,70,94,96,78,3,101,105,38,104,11,41,67,95,54,71,85,48,73,2,33,82,72,45,25,62,22,21,17,90,64,16,20,56,40,77,46,86,99,68,50,47,61,14,26,34,83,80,57,9,19,42,81,6,69,88,13,31,98,106,65,52,5,30,29,55,97,8,92,23,12,93,89,74,102,24,1,87,28,58,76,10,27,44,59,66